(set-info :Origin "This instance was generated by: BanditFuzz-- an RL fuzzer for SMT solvers" )
(set-info :Author "Joe Scott, Fed Mora, Vijay Ganesh" )
(set-info :Contact "Joe Scott, joseph.scott@uwaterloo.ca")
(set-logic QF_BV)
(declare-const bool_0 Bool)
(declare-const bool_1 Bool)
(declare-const bool_2 Bool)
(declare-const bool_3 Bool)
(declare-const bool_4 Bool)
(declare-const bv_0 (_ BitVec 32))
(declare-const bv_1 (_ BitVec 32))
(declare-const bv_2 (_ BitVec 32))
(declare-const bv_3 (_ BitVec 32))
(declare-const bv_4 (_ BitVec 32))
(assert (bvsge (bvmul (bvmul bv_3 bv_2) (bvsmod #xb0f710d6  bv_4)) (bvsdiv (bvsub #x64b60563  bv_4) (bvurem bv_3 #x6c4f39ab ))))
(assert (bvule (bvurem (bvudiv bv_0 bv_2) (bvnand #xcf7f8dd4  #xa55b9467 )) (bvurem (bvlshr #xa41f3590  bv_2) (bvshl bv_2 #x32453803 ))))
(assert (or (bvslt (bvsrem bv_2 bv_4) (bvsdiv bv_4 bv_3)) (bvsgt (bvxor bv_3 bv_3) (bvsrem #x2ff065d4  #xe0071073 ))))
(assert (or (bvsge (bvxnor #xcdfb346f  #x226fe93b ) (bvsmod #xf6ea7559  #x1c53c183 )) (bvslt (bvsdiv bv_1 bv_0) (bvand bv_0 bv_0))))
(assert (bvsge (bvudiv (bvurem bv_3 bv_1) (bvmul #x39210f0b  bv_4)) (bvashr (bvurem #xf9fbdded  #xb201460d ) (bvsmod bv_0 bv_1))))
(check-sat)
(exit)
